4 10 100 1 2
0 200
 1 40.00 50.00 0.00 0.00 0.00 0 0 0 1236
 2 45.00 68.00 90.00 10.00 20.00 1 1 1 850 1030
 3 45.00 70.00 90.00 30.00 10.00 1 1 1 758 938
 4 42.00 66.00 90.00 10.00 10.00 1 1 1 16 196
 5 42.00 68.00 90.00 10.00 10.00 1 1 1 665 845
 6 42.00 65.00 90.00 10.00 20.00 1 1 1 15 195
 7 40.00 69.00 90.00 20.00 30.00 1 1 1 572 752
 8 40.00 66.00 90.00 20.00 20.00 1 1 1 108 288
 9 38.00 68.00 90.00 20.00 10.00 1 1 1 200 380
 10 38.00 70.00 90.00 10.00 30.00 1 1 1 480 660
 11 35.00 66.00 90.00 10.00 10.00 1 1 1 294 474
 12 35.00 69.00 90.00 10.00 20.00 1 1 1 387 567
 13 25.00 85.00 90.00 20.00 10.00 1 1 1 597 777
 14 22.00 75.00 90.00 30.00 20.00 1 1 1 30 210
 15 22.00 85.00 90.00 10.00 10.00 1 1 1 504 684
 16 20.00 80.00 90.00 40.00 10.00 1 1 1 317 497
 17 20.00 85.00 90.00 40.00 20.00 1 1 1 412 592
 18 18.00 75.00 90.00 20.00 20.00 1 1 1 34 214
 19 15.00 75.00 90.00 20.00 10.00 1 1 1 127 307
 20 15.00 80.00 90.00 10.00 10.00 1 1 1 222 402
 21 30.00 50.00 90.00 10.00 10.00 1 1 1 10 190
 22 30.00 52.00 90.00 20.00 20.00 1 1 1 850 1030
 23 28.00 52.00 90.00 20.00 30.00 1 1 1 758 938
 24 28.00 55.00 90.00 10.00 10.00 1 1 1 665 845
 25 25.00 50.00 90.00 10.00 40.00 1 1 1 15 195
 26 25.00 52.00 90.00 40.00 10.00 1 1 1 107 287
 27 25.00 55.00 90.00 10.00 10.00 1 1 1 572 752
 28 23.00 52.00 90.00 10.00 10.00 1 1 1 199 379
 29 23.00 55.00 90.00 20.00 20.00 1 1 1 480 660
 30 20.00 50.00 90.00 10.00 10.00 1 1 1 292 472
 31 20.00 55.00 90.00 10.00 30.00 1 1 1 387 567
 32 10.00 35.00 90.00 20.00 10.00 1 1 1 129 309
 33 10.00 40.00 90.00 30.00 30.00 1 1 1 31 211
 34 8.00 40.00 90.00 40.00 10.00 1 1 1 33 213
 35 8.00 45.00 90.00 20.00 10.00 1 1 1 694 874
 36 5.00 35.00 90.00 10.00 10.00 1 1 1 224 404
 37 5.00 45.00 90.00 10.00 10.00 1 1 1 601 781
 38 2.00 40.00 90.00 20.00 10.00 1 1 1 319 499
 39 0.00 40.00 90.00 30.00 20.00 1 1 1 411 591
 40 0.00 45.00 90.00 20.00 10.00 1 1 1 506 686
 41 35.00 30.00 90.00 10.00 40.00 1 1 1 203 383
 42 35.00 32.00 90.00 10.00 10.00 1 1 1 111 291
 43 33.00 32.00 90.00 20.00 40.00 1 1 1 19 199
 44 33.00 35.00 90.00 10.00 10.00 1 1 1 16 196
 45 32.00 30.00 90.00 10.00 30.00 1 1 1 296 476
 46 30.00 30.00 90.00 10.00 30.00 1 1 1 481 661
 47 30.00 32.00 90.00 30.00 30.00 1 1 1 389 569
 48 30.00 35.00 90.00 10.00 10.00 1 1 1 947 1127
 49 28.00 30.00 90.00 10.00 20.00 1 1 1 573 753
 50 28.00 35.00 90.00 10.00 10.00 1 1 1 944 1124
 51 26.00 32.00 90.00 10.00 10.00 1 1 1 758 938
 52 25.00 30.00 90.00 10.00 10.00 1 1 1 666 846
 53 25.00 35.00 90.00 10.00 10.00 1 1 1 851 1031
 54 44.00 5.00 90.00 20.00 40.00 1 1 1 227 407
 55 42.00 10.00 90.00 40.00 10.00 1 1 1 132 312
 56 42.00 15.00 90.00 10.00 10.00 1 1 1 37 217
 57 40.00 5.00 90.00 30.00 10.00 1 1 1 321 501
 58 40.00 15.00 90.00 40.00 10.00 1 1 1 35 215
 59 38.00 5.00 90.00 30.00 30.00 1 1 1 413 593
 60 38.00 15.00 90.00 10.00 10.00 1 1 1 606 786
 61 35.00 5.00 90.00 20.00 40.00 1 1 1 506 686
 62 50.00 30.00 90.00 10.00 10.00 1 1 1 481 661
 63 50.00 35.00 90.00 20.00 30.00 1 1 1 200 380
 64 50.00 40.00 90.00 50.00 10.00 1 1 1 105 285
 65 48.00 30.00 90.00 10.00 10.00 1 1 1 573 753
 66 48.00 40.00 90.00 10.00 40.00 1 1 1 13 193
 67 47.00 35.00 90.00 10.00 20.00 1 1 1 761 941
 68 47.00 40.00 90.00 10.00 10.00 1 1 1 12 192
 69 45.00 30.00 90.00 10.00 10.00 1 1 1 666 846
 70 45.00 35.00 90.00 10.00 20.00 1 1 1 853 1033
 71 95.00 30.00 90.00 30.00 20.00 1 1 1 332 512
 72 95.00 35.00 90.00 20.00 10.00 1 1 1 237 417
 73 53.00 30.00 90.00 10.00 10.00 1 1 1 388 568
 74 92.00 30.00 90.00 10.00 20.00 1 1 1 425 605
 75 53.00 35.00 90.00 50.00 20.00 1 1 1 293 473
 76 45.00 65.00 90.00 20.00 10.00 1 1 1 943 1123
 77 90.00 35.00 90.00 10.00 10.00 1 1 1 142 322
 78 88.00 30.00 90.00 10.00 30.00 1 1 1 519 699
 79 88.00 35.00 90.00 20.00 20.00 1 1 1 50 230
 80 87.00 30.00 90.00 10.00 20.00 1 1 1 610 790
 81 85.00 25.00 90.00 10.00 40.00 1 1 1 705 885
 82 85.00 35.00 90.00 30.00 20.00 1 1 1 47 227
 83 75.00 55.00 90.00 20.00 10.00 1 1 1 305 485
 84 72.00 55.00 90.00 10.00 30.00 1 1 1 212 392
 85 70.00 58.00 90.00 20.00 10.00 1 1 1 401 581
 86 68.00 60.00 90.00 30.00 20.00 1 1 1 494 674
 87 66.00 55.00 90.00 10.00 20.00 1 1 1 116 296
 88 65.00 55.00 90.00 20.00 10.00 1 1 1 25 205
 89 65.00 60.00 90.00 30.00 10.00 1 1 1 587 767
 90 63.00 58.00 90.00 10.00 20.00 1 1 1 680 860
 91 60.00 55.00 90.00 10.00 20.00 1 1 1 20 200
 92 60.00 60.00 90.00 10.00 10.00 1 1 1 773 953
 93 67.00 85.00 90.00 20.00 50.00 1 1 1 315 495
 94 65.00 85.00 90.00 40.00 20.00 1 1 1 407 587
 95 65.00 82.00 90.00 10.00 10.00 1 1 1 221 401
 96 62.00 80.00 90.00 30.00 30.00 1 1 1 128 308
 97 60.00 80.00 90.00 10.00 20.00 1 1 1 36 216
 98 60.00 85.00 90.00 30.00 20.00 1 1 1 502 682
 99 58.00 75.00 90.00 20.00 10.00 1 1 1 30 210
 100 55.00 80.00 90.00 10.00 10.00 1 1 1 692 872
 101 55.00 85.00 90.00 20.00 50.00 1 1 1 597 777
